
se = 40; % nombre de sessions
gr = 20; % nombre de grups de treball
cl = 7; % nombre de slots
minPapersPerSlot = 3; % minim nombre d'articles per sessio i slot
maxSesionsPar = 14; % maxim nombre de sessions paraleles

npMax = [3, 6, 4, 3, 3, 4, 5]; % nombre maxim de papers per slot

np = [11, 8, 3, 3, 4, 3, 3, 8, 8, 14, 13, 12, 7, 8, 5, 11, 3, 3, 7, 3, 7, 10, 6, 7, 8, 4, 12, 3, 7, 3, 3, 13, 3, 5, 16, 3, 10, 6, 8, 3]; % nombre de papers acceptats a cada sessio

WG = [ {1}, {2}, {3}, {}, {4,5,6}, {7,8}, {9}, {10}, {}, {11}, {12,13}, {14}, {15}, {16}, {17,18}, {19}, {20}, {1}, {}, {2}, {}, {}, {3}, {4,5}, {}, {6}, {}, {7}, {}, {}, {8}, {}, {9}, {10}, {11}, {12,13}, {}, {14}, {15}, {16,17} ]; % grups per sessio

